
Log started (V12.10.0.0) Fri Apr  2 17:16:13 2021


Problem 'asset.lp' read.
Read time = 0.01 sec. (0.23 ticks)
New value for default parallel thread count: 1
New value for time limit in seconds: 300
Version identifier: 12.10.0.0 | 2019-11-26 | 843d4de
CPXPARAM_Threads                                 1
CPXPARAM_TimeLimit                               300
Found incumbent of value -0.889599 after 0.00 sec. (0.11 ticks)
Tried aggregator 3 times.
MIP Presolve eliminated 964 rows and 638 columns.
MIP Presolve modified 2131 coefficients.
Aggregator did 510 substitutions.
Reduced MIP has 712 rows, 776 columns, and 3298 nonzeros.
Reduced MIP has 664 binaries, 73 generals, 0 SOSs, and 0 indicators.
Presolve time = 0.01 sec. (8.17 ticks)
Probing fixed 149 vars, tightened 20 bounds.
Probing time = 0.00 sec. (2.59 ticks)
Cover probing fixed 0 vars, tightened 65 bounds.
Tried aggregator 1 time.
MIP Presolve eliminated 195 rows and 193 columns.
MIP Presolve modified 128 coefficients.
Reduced MIP has 517 rows, 583 columns, and 2191 nonzeros.
Reduced MIP has 491 binaries, 53 generals, 0 SOSs, and 0 indicators.
Presolve time = 0.00 sec. (2.15 ticks)
Probing time = 0.00 sec. (1.49 ticks)
Tried aggregator 1 time.
Detecting symmetries...
MIP Presolve modified 216 coefficients.
Reduced MIP has 517 rows, 583 columns, and 2191 nonzeros.
Reduced MIP has 491 binaries, 53 generals, 0 SOSs, and 0 indicators.
Presolve time = 0.00 sec. (1.53 ticks)
Probing time = 0.00 sec. (1.47 ticks)
Clique table members: 1532.
MIP emphasis: balance optimality and feasibility.
MIP search method: dynamic search.
Parallel mode: none, using 1 thread.
Root relaxation solution time = 0.00 sec. (4.84 ticks)

        Nodes                                         Cuts/
   Node  Left     Objective  IInf  Best Integer    Best Bound    ItCnt     Gap

*     0+    0                           -0.8896      350.1804              --- 
      0     0      225.8689   114       -0.8896      225.8689      334     --- 
      0     0      213.7852   114       -0.8896     Cuts: 202      480     --- 
      0     0      208.1816   114       -0.8896     Cuts: 199      674     --- 
      0     0      202.6827   114       -0.8896     Cuts: 117      788     --- 
      0     0      201.8734   114       -0.8896      Cuts: 83      891     --- 
      0     0      201.6757   114       -0.8896      Cuts: 59      980     --- 
Detecting symmetries...
      0     0      201.4625   114       -0.8896      Cuts: 78     1057     --- 
      0     0      201.4223   114       -0.8896      Cuts: 78     1155     --- 
      0     0      201.2315   114       -0.8896      Cuts: 73     1240     --- 
      0     0      201.0668   114       -0.8896      Cuts: 53     1353     --- 
      0     0      200.8362   114       -0.8896      Cuts: 84     1461     --- 
      0     0      200.7433   114       -0.8896      Cuts: 63     1517     --- 
      0     0      200.3788   114       -0.8896      Cuts: 44     1673     --- 
      0     0      200.3194   114       -0.8896      Cuts: 96     1763     --- 
      0     0      200.1372   114       -0.8896      Cuts: 64     1880     --- 
      0     0      200.0987   114       -0.8896      Cuts: 56     1939     --- 
      0     0      199.8687   114       -0.8896      Cuts: 46     2047     --- 
      0     0      199.7882   114       -0.8896     Cuts: 112     2131     --- 
      0     0      199.7429   114       -0.8896      Cuts: 64     2232     --- 
      0     0      199.7098   114       -0.8896     Cuts: 135     2325     --- 
      0     0      199.6985   114       -0.8896      Cuts: 66     2397     --- 
*     0+    0                          133.5750      199.6985            49.50%
*     0+    0                          133.5769      199.6985            49.50%
*     0+    0                          133.5801      199.6985            49.50%
      0     0        cutoff            133.5801      199.6985     2397   49.50%
Detecting symmetries...
      0     2      199.6985   148      133.5801      199.6957     2397   49.50%
Elapsed time = 0.29 sec. (285.58 ticks, tree = 0.01 MB, solutions = 3)
*    30+   30                          149.2162      199.6662            33.81%
*    60+   51                          151.8862      199.6662            31.46%
*    60+   51                          151.8868      199.6662            31.46%
    106    96      182.7900    90      151.8868      199.6333     8522   31.44%
*   160+  122                          151.8884      199.6022            31.41%
    276   226        cutoff            151.8884      199.3806    15758   31.27%
    460   374      184.9885    97      151.8884      198.8058    23100   30.89%

Performing restart 1

Repeating presolve.
Tried aggregator 2 times.
MIP Presolve eliminated 2 rows and 2 columns.
MIP Presolve modified 284 coefficients.
Aggregator did 2 substitutions.
Reduced MIP has 513 rows, 579 columns, and 1977 nonzeros.
Reduced MIP has 487 binaries, 53 generals, 0 SOSs, and 0 indicators.
Presolve time = 0.00 sec. (2.85 ticks)
Tried aggregator 1 time.
Reduced MIP has 513 rows, 579 columns, and 1977 nonzeros.
Reduced MIP has 487 binaries, 53 generals, 0 SOSs, and 0 indicators.
Presolve time = 0.00 sec. (1.47 ticks)
Represolve time = 0.01 sec. (11.70 ticks)
    519     0      197.0318   146      151.8884     Cuts: 174    26267   29.72%
    519     0      190.7086   146      151.8884     Cuts: 148    26440   25.56%
    519     0      187.5644   146      151.8884     Cuts: 179    26556   23.49%
    519     0      185.1281   146      151.8884     Cuts: 113    26686   21.88%
    519     0      183.0830   146      151.8884     Cuts: 154    26809   20.54%
    519     0      181.9478   146      151.8884     Cuts: 124    26901   19.79%
    519     0      181.6889   146      151.8884      Cuts: 42    26948   19.62%
    519     0      180.2739   146      151.8884      Cuts: 51    27041   18.69%
    519     0      179.6955   146      151.8884      Cuts: 79    27103   18.31%
    519     0      179.1089   146      151.8884      Cuts: 63    27159   17.92%
    519     0      178.4559   146      151.8884      Cuts: 54    27213   17.49%
    519     0      178.2439   146      151.8884      Cuts: 49    27261   17.35%
    519     0      177.9283   146      151.8884      Cuts: 59    27305   17.14%
    519     0      177.6013   146      151.8884      Cuts: 31    27370   16.93%
    519     0      176.2603   146      151.8884      Cuts: 63    27500   16.05%
    519     0      175.9493   146      151.8884      Cuts: 56    27561   15.84%
    519     0      175.8226   146      151.8884      Cuts: 42    27605   15.76%
    519     0      175.6184   146      151.8884      Cuts: 78    27676   15.62%
    519     0      175.4568   146      151.8884      Cuts: 50    27737   15.52%
    519     0      175.2650   146      151.8884      Cuts: 70    27791   15.39%
    519     0      175.1446   146      151.8884      Cuts: 39    27834   15.31%
    519     0      175.0889   146      151.8884      Cuts: 28    27865   15.27%
    519     0      175.0149   146      151.8884      Cuts: 29    27906   15.23%
    519     0      175.0083   146      151.8884      Cuts: 21    27929   15.22%
    519     0      175.0002   146      151.8884      Cuts: 19    27948   15.22%
    519     0      174.9940   146      151.8884      Cuts: 13    27966   15.21%
    519     0      174.9936   146      151.8884      Cuts: 10    27975   15.21%
*   519+    0                          154.2411      174.9936            13.45%
    519     2      174.9936   180      154.2411      174.9860    27975   13.45%
    523     6      168.3320   108      154.2411      173.3417    28473   12.38%
    536    19      167.0750    72      154.2411      173.3417    29255   12.38%
    569    36      169.7790   150      154.2411      172.5240    30986   11.85%
    649    93      169.3369   117      154.2411      170.9892    34330   10.86%
*   673    98      integral     0      155.6874      170.3740    35276    9.43%
    727   134      163.7111    45      155.6874      169.7574    38312    9.04%
*   759   137      integral     0      157.6765      169.3352    39423    7.39%
Elapsed time = 3.25 sec. (3549.26 ticks, tree = 0.13 MB, solutions = 10)
*   802   136      integral     0      160.2067      169.1065    41061    5.56%
*   839+  124                          161.7065      168.3156             4.09%
*   841   125      integral     0      161.7071      168.3156    43279    4.09%
*   969+   61                          164.5060      166.4478             1.18%
*  1054    13      integral     0      164.5067      164.5701    51111    0.04%

GUB cover cuts applied:  11
Clique cuts applied:  99
Cover cuts applied:  9
Implied bound cuts applied:  43
Flow cuts applied:  6
Mixed integer rounding cuts applied:  56
Zero-half cuts applied:  44
Lift and project cuts applied:  16
Gomory fractional cuts applied:  1

Root node processing (before b&c):
  Real time             =    0.29 sec. (285.81 ticks)
Sequential b&c:
  Real time             =    3.59 sec. (3981.58 ticks)
                          ------------
Total (root+branch&cut) =    3.88 sec. (4267.39 ticks)

Solution pool: 16 solutions saved.

MIP - Integer optimal, tolerance (0.0001/1e-06):  Objective =  1.6450666673e+02
Current MIP best bound =  1.6451552728e+02 (gap = 0.00886055, 0.01%)
Solution time =    3.88 sec.  Iterations = 51114  Nodes = 1057 (10)
Deterministic time = 4267.40 ticks  (1099.14 ticks/sec)


Incumbent solution
Variable Name           Solution Value
F                           190.000000
f1                            0.913333
f2                           24.580000
y107                          1.000000
y200                          1.000000
y231                          1.000000
y127                          1.000000
y229                          1.000000
y24                           1.000000
y149                          1.000000
y114                          1.000000
y150                          1.000000
y95                           1.000000
y168                          1.000000
y180                          1.000000
y35                           1.000000
s14                           6.000000
s50                           6.000000
s56                           6.000000
s57                           6.000000
s58                           6.000000
s61                           6.000000
s77                           6.000000
s85                           6.000000
s86                           6.000000
s107                          6.472678
s118                          6.000000
s121                          6.000000
s144                          6.000000
s200                          6.624199
s231                          6.415821
s240                          6.000000
s248                          6.000000
s261                          6.000000
s94                           6.050000
s154                          6.080000
s250                          6.090000
s112                          6.130000
s127                          6.817720
s220                          6.190000
s229                          6.758677
s245                          6.290000
s24                           7.237957
s149                          7.026865
s267                          6.430000
s181                          6.470000
s241                          6.480000
s128                          6.580000
s92                           6.620000
s264                          6.630000
s114                          6.743100
s176                          6.740000
s147                          6.770000
s150                          7.778111
s151                          6.800000
s103                          6.850000
s130                          6.870000
s12                           6.880000
s95                           7.853454
s168                          7.850803
s226                          6.930000
s175                          7.000000
s153                          7.010000
s180                          7.893667
s35                           7.652060
s20                           7.050000
x108x114x1                    1.000000
x158x229x1                    1.000000
x243x107x1                    1.000000
x243x229x1                    1.000000
x160x168x1                    1.000000
x73x200x2                     2.000000
x246x149x2                    1.000000
x108x231x2                    1.000000
x52x127x2                     1.000000
x52x149x2                     1.000000
x194x107x2                    1.000000
x246x24x3                     1.000000
x158x127x3                    1.000000
x194x114x3                    1.000000
x160x24x3                     1.000000
x164x231x3                    1.000000
x107x35x1                     1.000000
x107x0x2                      1.000000
x200x150x2                    2.000000
x231x35x2                     1.000000
x231x95x3                     1.000000
x127x0x2                      1.000000
x127x0x3                      1.000000
x229x180x1                    2.000000
x24x0x3                       2.000000
x149x0x2                      2.000000
x114x168x1                    1.000000
x114x95x3                     1.000000
x150x0x2                      2.000000
x95x0x3                       2.000000
x168x0x1                      2.000000
x180x0x1                      2.000000
x35x0x1                       1.000000
x35x0x2                       1.000000
s73                           4.933912
z73z200z2                     1.000000
z73z149z2                     1.000000
z73z150z2                     1.000000
s246                          5.045527
z246z24z3                     1.000000
z246z149z2                    1.000000
s108                          5.044547
z108z231z2                    1.000000
z108z114z1                    1.000000
z108z176z1                    1.000000
z108z150z2                    1.000000
z108z168z1                    1.000000
z108z175z1                    1.000000
z108z180z1                    1.000000
z108z20z1                     1.000000
s158                          5.053071
z158z127z3                    1.000000
z158z229z1                    1.000000
z158z180z1                    1.000000
z158z20z1                     1.000000
s52                           5.307607
z52z127z2                     1.000000
z52z149z2                     1.000000
s194                          5.095910
z194z107z2                    1.000000
z194z114z3                    1.000000
z194z147z3                    1.000000
z194z150z2                    1.000000
z194z151z3                    1.000000
z194z103z3                    1.000000
z194z12z3                     1.000000
z194z95z3                     1.000000
s243                          5.277400
z243z107z1                    1.000000
z243z229z1                    1.000000
z243z176z1                    1.000000
z243z175z1                    1.000000
z243z180z1                    1.000000
z243z20z1                     1.000000
s160                          5.470000
z160z24z3                     1.000000
z160z168z1                    1.000000
z160z20z1                     1.000000
s164                          3.967000
z164z231z3                    1.000000
z164z245z3                    1.000000
z164z24z3                     1.000000
z164z147z3                    1.000000
z164z151z3                    1.000000
z164z103z3                    1.000000
z164z12z3                     1.000000
z164z95z3                     1.000000
z14z180z1                     1.000000
z107z35z1                     1.000000
z200z150z2                    1.000000
z231z95z3                     1.000000
z231z35z2                     1.000000
z229z180z1                    1.000000
z114z95z3                     1.000000
z114z168z1                    1.000000
z151z95z3                     1.000000
All other variables in the range 1-1931 are 0.
